c ---- [ banner ] ------------------------------------------------------------
c
c Kissat SAT Solver
c 
c Copyright (c) 2021-2022 Armin Biere University of Freiburg
c Copyright (c) 2019-2021 Armin Biere Johannes Kepler University Linz
c 
c Version 3.0.0 97917ddf2b12adc6f63c7b2a5a403a1ee7d81836
c /share/apps/gcc/7.3/bin/gcc -W -O -DNDEBUG 
c Mon Jul 25 20:22:07 +08 2022 Linux sm101 2.6.32-131.0.15.el6.x86_64 x86_64
c
c ---- [ parsing ] -----------------------------------------------------------
c
c opened and reading DIMACS file:
c
c   /home/vkondratev/data/Multipliers_2022/testing/testing_snakes/cnfs/s-n-b_6_27.cnf
c
c parsed 'p cnf 2268 11115' header
c closing input after reading 210888 bytes (206 KB)
c finished parsing after 0.01 seconds
c
c ---- [ solving ] -----------------------------------------------------------
c
c  seconds switched rate      trail     variables
c         MB reductions conflicts glue       remaining
c          level restarts redundant irredundant
c
c *  0.01  2 0 0 0  0 0   0   0 0% 0 11115 2268 100%
c {  0.01  2 0 0 0  0 0   0   0 0% 0 11115 2268 100%
c -  0.02  2 151 0 1 108 17 1000 349 22% 4 11050 2268 100%
c }  0.02  2 151 1 1 108 17 1000 349 22% 4 11050 2268 100%
c [  0.02  2 0 1 1 108 0 1000 349 0% 0 11050 2268 100%
c B  0.02  2 54 1 1 108 1 1001 350 25% 10 11050 2268 100%
c u  0.03  2 34 1 1 108 1 1637 648 28% 9 11020 2268 100%
c v  0.03  2 34 1 1 108 1 1637 622 28% 9 11020 2268 100%
c -  0.05  2 40 1 2 108 1 2000 624 32% 12 11001 2268 100%
c W  0.05  3 40 1 2 108 1 2002 626 32% 12 11001 2268 100%
c ]  0.06  3 42 2 2 109 2 2535 1115 37% 13 10981 2268 100%
c {  0.06  3 151 2 2 109 17 2535 1115 22% 4 10981 2268 100%
c u  0.08  3 96 2 2 324 16 3271 1549 17% 6 10955 2268 100%
c v  0.08  3 96 2 2 324 16 3271 1535 17% 6 10955 2268 100%
c -  0.09  3 91 2 3 375 16 3415 966 17% 6 10950 2268 100%
c }  0.09  3 83 3 3 464 15 3756 1204 17% 6 10939 2268 100%
c [  0.09  3 42 3 3 464 2 3756 1204 37% 13 10939 2268 100%
c I  0.11  3 41 3 3 464 2 4261 1668 38% 13 10922 2268 100%
c -  0.12  3 40 3 4 465 2 5147 1488 34% 13 10906 2268 100%
c u  0.17  3 40 3 4 466 2 6666 2786 35% 13 10894 2268 100%
c
c  seconds  switched  rate         trail      variables
c         MB reductions conflicts      glue        remaining
c          level restarts   redundant   irredundant
c
c v  0.17  3 40 3 4 466 2 6666 2746 35% 13 10894 2268 100%
c ]  0.18  3 40 4 4 466 2 6716 2794 35% 13 10894 2268 100%
c {  0.18  3 83 4 4 466 15 6716 2794 17% 6 10894 2268 100%
c -  0.19  3 75 4 5 589 15 7147 1795 17% 7 10886 2268 100%
c e  0.22  3 64 4 5 740 13 8187 2577 16% 7 10875 2267 100%
c s  0.22  3 64 4 5 740 13 8187 2577 16% 7 10790 2267 100%
c -  0.25  3 56 4 6 906 12 9384 2348 17% 7 10790 2267 100%
c }  0.25  3 56 5 6 914 12 9409 2371 17% 7 10790 2267 100%
c [  0.25  3 40 5 6 914 2 9409 2371 35% 13 10790 2267 100%
c B  0.25  3 40 5 6 914 2 9409 2371 35% 13 10790 2267 100%
c -  0.32  3 41 5 7 916 2 11833 2922 37% 13 10790 2267 100%
c u  0.33  3 41 5 7 916 2 11932 2651 37% 13 10790 2267 100%
c v  0.33  3 41 5 7 916 2 11932 2484 37% 13 10790 2267 100%
c ]  0.38  3 41 6 7 916 2 13375 3925 40% 13 10790 2267 100%
c {  0.38  3 56 6 7 916 12 13375 3925 17% 7 10790 2267 100%
c -  0.41  3 51 6 8 1033 11 14478 3002 17% 7 10790 2267 100%
c s  0.45  3 48 6 8 1269 10 16322 4674 18% 7 10788 2267 100%
c e  0.45  3 48 6 8 1269 10 16322 4674 18% 7 10788 2266 100%
c ^  0.45  3 48 6 8 1269 10 16322 4674 18% 7 10788 2266 100%
c -  0.48  3 47 6 9 1414 10 17306 3800 19% 7 10788 2266 100%
c
c  seconds  switched    rate          trail     variables
c         MB reductions   conflicts      glue        remaining
c          level  restarts     redundant  irredundant
c
c }  0.49  3 46 7 9 1453 10 17490 3978 18% 7 10788 2266 100%
c [  0.49  3 41 7 9 1453 2 17490 3978 40% 13 10788 2266 100%
c W  0.49  3 41 7 9 1453 2 17490 3978 40% 13 10788 2266 100%
c u  0.56  3 40 7 9 1454 2 19172 5219 40% 13 10788 2266 100%
c v  0.57  3 40 7 9 1454 2 19172 5027 40% 13 10788 2266 100%
c -  0.62  3 40 7 10 1455 2 20306 3791 40% 14 10788 2266 100%
c ]  0.69  3 40 8 10 1456 2 22047 5526 41% 14 10788 2266 100%
c {  0.69  3 46 8 10 1456 10 22047 5526 18% 7 10788 2266 100%
c -  0.73  3 45 8 11 1650 9 23468 4130 19% 7 10788 2266 100%
c -  0.83  3 43 8 12 2136 9 26785 4837 20% 8 10788 2266 100%
c }  0.84  3 43 9 12 2175 9 27093 5135 20% 8 10788 2266 100%
c [  0.84  3 40 9 12 2175 2 27093 5135 41% 14 10788 2266 100%
c O  0.84  3 40 9 12 2175 2 27093 5135 41% 14 10788 2266 100%
c u  0.91  3 39 9 12 2176 2 28493 5956 42% 14 10788 2266 100%
c v  0.92  3 39 9 12 2176 2 28493 5688 42% 14 10788 2266 100%
c -  1.00  3 39 9 13 2177 2 30249 4696 43% 14 10788 2266 100%
c ]  1.12  4 39 10 13 2180 2 33563 7993 43% 14 10788 2266 100%
c {  1.12  4 43 10 13 2180 9 33563 7993 20% 8 10788 2266 100%
c -  1.13  4 43 10 14 2213 9 33854 4991 20% 8 10788 2266 100%
c e  1.15  3 43 10 14 2228 9 33957 5091 20% 8 11111 1943 86%
c
c  seconds   switched    rate          trail     variables
c         MB   reductions  conflicts      glue        remaining
c          level    restarts    redundant  irredundant
c
c ^  1.15  3 43 10 14 2228 9 33957 5091 20% 8 11111 1943 86%
c -  1.25  4 41 10 15 2663 8 37595 4783 21% 8 11111 1943 86%
c u  1.34  4 41 10 15 2993 8 39961 6330 21% 8 11111 1943 86%
c v  1.35  4 41 10 15 2993 8 39961 6024 21% 8 11111 1943 86%
c }  1.40  3 40 11 15 3154 8 41337 7319 21% 8 11111 1943 86%
c [  1.40  3 39 11 15 3154 2 41337 7319 43% 14 11111 1943 86%
c B  1.40  3 39 11 15 3154 2 41337 7319 43% 14 11111 1943 86%
c -  1.41  4 39 11 16 3154 2 41467 4926 43% 14 11111 1943 86%
c -  1.56  4 40 11 17 3157 2 45467 5470 43% 14 11111 1943 86%
c -  1.72  4 41 11 18 3160 2 49590 5571 43% 15 11111 1943 86%
c ]  1.73  4 41 12 18 3160 2 49976 5956 43% 15 11111 1943 86%
c {  1.73  4 40 12 18 3160 8 49976 5956 21% 8 11111 1943 86%
c u  1.86  4 39 12 18 3540 7 53745 8706 21% 8 11111 1943 86%
c v  1.87  4 39 12 18 3540 7 53745 8462 21% 8 11111 1943 86%
c -  1.89  4 39 12 19 3552 7 53834 5485 21% 8 11111 1943 86%
c -  2.02  4 38 12 20 3984 7 58192 6580 22% 8 11111 1943 86%
c }  2.09  4 38 13 20 4229 7 60211 8538 22% 8 11111 1943 86%
c [  2.09  4 41 13 20 4229 2 60211 8538 43% 15 11111 1943 86%
c W  2.09  4 41 13 20 4229 2 60211 8538 43% 15 11111 1943 86%
c e  2.21  3 41 13 20 4231 2 62543 10859 43% 15 11163 1917 84%
c
c  seconds   switched    rate           trail      variables
c         MB   reductions  conflicts        glue        remaining
c          level    restarts     redundant   irredundant
c
c ^  2.21  3 41 13 20 4231 2 62543 10859 43% 15 11163 1917 84%
c -  2.22  4 41 13 21 4231 2 62664 6140 43% 15 11163 1917 84%
c -  2.41  4 41 13 22 4234 2 67246 6482 44% 16 11163 1917 84%
c ]  2.52  4 40 14 22 4235 2 69735 8956 44% 16 11163 1917 84%
c {  2.52  4 38 14 22 4235 7 69735 8956 22% 8 11163 1917 84%
c u  2.56  4 38 14 22 4253 7 69854 8052 22% 8 11163 1917 84%
c v  2.57  4 38 14 22 4253 7 69854 7672 22% 8 11163 1917 84%
c -  2.65  4 38 14 23 4467 7 71936 6170 22% 8 11163 1917 84%
c -  2.81  4 37 14 24 4983 7 76731 7327 23% 8 11163 1917 84%
c -  2.97  4 36 14 25 5390 6 81629 8178 23% 8 11163 1917 84%
c }  2.98  4 36 15 25 5396 6 81695 8244 23% 8 11163 1917 84%
c [  2.98  4 40 15 25 5396 2 81695 8244 44% 16 11163 1917 84%
c I  2.98  4 40 15 25 5396 2 81695 8244 44% 16 11163 1917 84%
c -  3.18  4 39 15 26 5399 2 86630 8591 44% 15 11163 1917 84%
c u  3.29  4 39 15 26 5401 2 88356 9307 44% 15 11163 1917 84%
c v  3.30  4 39 15 26 5401 2 88356 8857 44% 15 11163 1917 84%
c -  3.48  4 39 15 27 5402 2 91731 7365 45% 15 11163 1917 84%
c ]  3.56  4 39 16 27 5402 2 93592 9215 45% 15 11163 1917 84%
c {  3.56  4 36 16 27 5402 6 93592 9215 23% 8 11163 1917 84%
c -  3.69  4 36 16 28 5700 6 96927 8456 23% 8 11163 1917 84%
c
c  seconds   switched    rate           trail     variables
c         MB   reductions  conflicts       glue        remaining
c          level    restarts     redundant  irredundant
c
c -  3.90  5 36 16 29 6246 6 102219 9470 24% 9 11163 1917 84%
c e  3.95  3 36 16 29 6379 6 103201 10434 24% 9 11273 1889 83%
c ^  3.96  3 36 16 29 6379 6 103201 10434 24% 9 11273 1889 83%
c }  4.08  4 36 17 29 6673 6 106656 11710 24% 9 11273 1889 83%
c [  4.08  4 39 17 29 6673 2 106656 11710 45% 15 11273 1889 83%
c B  4.08  4 39 17 29 6673 2 106656 11710 45% 15 11273 1889 83%
c -  4.13  5 39 17 30 6673 2 107604 8473 45% 15 11273 1889 83%
c u  4.24  4 39 17 30 6675 2 109301 8927 45% 15 11273 1889 83%
c v  4.26  4 39 17 30 6675 2 109301 8373 45% 15 11273 1889 83%
c -  4.45  5 39 17 31 6678 2 113082 7620 46% 15 11273 1889 83%
c -  4.72  4 38 17 32 6679 2 118655 8009 46% 15 11273 1889 83%
c ]  4.78  4 38 18 32 6681 2 120101 9451 46% 15 11273 1889 83%
c {  4.78  4 36 18 32 6681 6 120101 9451 24% 9 11273 1889 83%
c -  4.94  4 35 18 33 6992 6 124311 9144 25% 9 11273 1889 83%
c -  5.17  5 35 18 34 7520 6 130055 10024 25% 9 11273 1889 83%
c u  5.33  5 35 18 34 7770 6 132801 11416 25% 9 11273 1889 83%
c v  5.35  5 35 18 34 7770 6 132801 10873 25% 9 11273 1889 83%
c }  5.48  5 35 19 34 8022 6 135390 13386 26% 9 11273 1889 83%
c [  5.48  5 38 19 34 8022 2 135390 13386 46% 15 11273 1889 83%
c W  5.48  5 38 19 34 8022 2 135390 13386 46% 15 11273 1889 83%
c
c  seconds   switched    rate           trail      variables
c         MB   reductions  conflicts        glue        remaining
c          level    restarts     redundant   irredundant
c
c -  5.51  5 38 19 35 8022 2 135885 9255 46% 15 11273 1889 83%
c -  5.85  5 38 19 36 8027 2 141804 9504 47% 16 11273 1889 83%
c -  6.19  5 37 19 37 8029 2 147808 9460 47% 16 11273 1889 83%
c ]  6.23  4 37 20 37 8029 2 148521 10173 47% 16 11273 1889 83%
c {  6.23  4 35 20 37 8029 6 148521 10173 26% 9 11273 1889 83%
c -  6.44  5 35 20 38 8473 6 153890 10756 26% 9 11273 1889 83%
c e  6.58  4 35 20 38 8738 5 157133 13860 26% 9 13086 1538 68%
c ^  6.59  4 35 20 38 8738 5 157133 13860 26% 9 13086 1538 68%
c }  6.61  5 34 20 38 8772 5 157624 8368 26% 9 13086 1538 68%
c 1  6.61  5 34 20 38 8772 5 157624 8368 26% 9 13086 1538 68%
c
c ---- [ result ] ------------------------------------------------------------
c
s SATISFIABLE
v -1 2 3 -4 5 -6 -7 8 9 -10 -11 -12 -13 -14 15 -16 -17 -18 -19 -20 -21 -22 -23
v -24 -25 -26 -27 28 -29 -30 -31 32 -33 34 -35 -36 -37 38 -39 40 41 -42 43 44
v -45 46 47 -48 49 50 -51 -52 53 -54 55 56 -57 -58 -59 -60 61 62 -63 -64 -65
v 66 -67 68 -69 -70 -71 72 -73 74 -75 -76 77 78 -79 -80 -81 -82 83 84 -85 -86
v -87 88 89 90 91 -92 -93 94 95 96 97 -98 -99 100 -101 102 103 -104 105 106
v -107 108 -109 -110 111 112 -113 114 -115 116 117 118 -119 120 -121 122 123
v 124 125 126 127 128 129 130 131 132 133 134 135 -136 137 138 139 -140 141
v -142 143 144 145 -146 147 -148 149 -150 151 -152 153 154 155 -156 -157 -158
v 159 160 161 -162 -163 -164 -165 -166 167 -168 -169 170 -171 -172 -173 -174
v -175 -176 177 -178 -179 -180 -181 -182 -183 184 -185 -186 -187 188 -189 -190
v -191 -192 -193 -194 -195 -196 197 -198 199 -200 -201 -202 -203 -204 -205
v -206 -207 208 -209 -210 -211 -212 -213 -214 215 -216 -217 -218 -219 -220
v -221 222 223 -224 -225 -226 -227 -228 -229 -230 -231 -232 233 -234 -235 236
v -237 -238 -239 -240 -241 -242 -243 244 -245 -246 247 -248 -249 -250 -251
v -252 -253 -254 -255 -256 257 -258 -259 -260 261 -262 -263 -264 265 -266 -267
v -268 -269 -270 -271 272 -273 -274 -275 -276 -277 -278 -279 -280 281 -282 283
v -284 -285 -286 -287 -288 -289 -290 -291 292 -293 -294 -295 296 -297 -298
v -299 -300 -301 -302 -303 -304 -305 306 -307 -308 -309 310 -311 -312 313 -314
v -315 -316 -317 -318 -319 320 -321 -322 323 -324 -325 326 327 -328 -329 -330
v -331 332 333 -334 335 -336 -337 -338 339 340 -341 -342 -343 344 345 346 -347
v -348 -349 350 351 352 353 -354 -355 356 -357 358 -359 -360 -361 362 363 364
v -365 -366 -367 -368 369 370 -371 -372 -373 -374 375 376 377 -378 -379 380
v -381 -382 383 -384 -385 386 -387 388 389 -390 -391 392 393 394 395 -396 -397
v -398 399 400 401 -402 -403 -404 405 406 -407 -408 409 -410 -411 -412 413
v -414 415 416 -417 -418 419 -420 421 422 -423 424 425 -426 427 428 429 430
v 431 -432 433 -434 435 436 437 -438 439 -440 441 442 -443 -444 445 -446 -447
v 448 -449 -450 451 -452 -453 454 455 -456 457 458 -459 460 461 -462 463 464
v -465 -466 467 -468 469 470 471 -472 473 -474 475 -476 477 -478 479 -480 481
v -482 483 -484 -485 -486 -487 -488 -489 490 491 -492 493 -494 -495 496 497
v -498 499 -500 -501 502 -503 -504 505 506 -507 508 -509 -510 511 512 -513
v -514 -515 -516 517 518 519 -520 -521 -522 523 -524 525 -526 -527 -528 529
v -530 531 -532 533 -534 -535 -536 -537 -538 539 540 -541 -542 -543 544 545
v 546 547 -548 -549 550 551 552 553 -554 -555 556 -557 558 559 560 -561 562
v -563 564 565 566 -567 -568 -569 570 571 572 573 -574 -575 576 577 -578 579
v -580 -581 582 583 -584 585 -586 587 588 589 -590 -591 -592 -593 594 595 -596
v -597 -598 599 600 601 -602 -603 604 605 606 -607 -608 -609 610 611 612 -613
v -614 -615 616 -617 618 -619 620 -621 622 -623 624 -625 626 -627 -628 -629
v 630 -631 632 633 -634 -635 636 -637 -638 639 -640 -641 642 -643 -644 645
v -646 647 648 649 -650 -651 -652 653 -654 655 -656 -657 -658 659 660 661 -662
v -663 -664 -665 666 667 -668 -669 670 -671 672 -673 -674 -675 676 -677 678
v -679 -680 -681 682 683 684 -685 686 -687 688 689 690 -691 692 -693 -694 695
v 696 -697 698 699 -700 701 702 -703 -704 705 -706 707 708 -709 -710 711 -712
v -713 714 -715 716 -717 -718 719 -720 721 722 -723 -724 725 -726 727 728 -729
v -730 731 732 733 734 -735 -736 -737 738 739 740 -741 742 -743 744 -745 746
v -747 748 -749 750 -751 752 -753 754 755 756 -757 -758 -759 760 761 762 -763
v -764 -765 -766 767 768 -769 -770 771 -772 773 774 -775 776 777 -778 779 780
v -781 782 783 -784 -785 786 -787 788 -789 790 -791 -792 -793 794 -795 796 797
v -798 799 800 -801 802 803 -804 805 806 -807 808 809 810 811 812 -813 814
v -815 816 817 818 -819 -820 -821 822 -823 824 -825 -826 -827 828 -829 830
v -831 -832 833 834 -835 -836 -837 -838 839 840 -841 -842 -843 844 845 846
v -847 -848 849 850 851 852 -853 854 855 856 857 858 -859 860 861 862 -863 864
v 865 -866 -867 868 -869 -870 871 872 -873 874 -875 -876 877 878 -879 880 881
v -882 -883 884 -885 886 887 -888 -889 890 -891 892 893 894 -895 896 -897 898
v -899 900 -901 902 -903 -904 -905 906 907 908 -909 -910 -911 912 913 914 -915
v -916 917 918 919 -920 -921 -922 923 924 925 -926 -927 928 929 930 931 -932
v 933 934 935 936 937 938 939 940 941 942 943 944 945 946 -947 948 949 -950
v -951 -952 953 -954 955 -956 -957 958 959 -960 961 962 -963 964 965 -966 967
v 968 -969 970 -971 -972 -973 974 -975 976 -977 -978 -979 980 -981 982 -983
v 984 -985 986 -987 988 989 990 -991 992 -993 -994 995 996 997 998 -999 -1000
v 1001 1002 1003 1004 -1005 -1006 -1007 1008 1009 -1010 -1011 -1012 -1013 1014
v 1015 -1016 -1017 1018 -1019 1020 1021 -1022 1023 1024 -1025 1026 1027 1028
v 1029 1030 -1031 1032 1033 1034 1035 1036 1037 1038 -1039 -1040 1041 -1042
v 1043 -1044 1045 -1046 1047 -1048 1049 -1050 1051 -1052 1053 1054 1055 -1056
v 1057 1058 1059 1060 1061 -1062 1063 1064 1065 1066 -1067 -1068 -1069 1070
v 1071 1072 -1073 -1074 -1075 1076 1077 1078 -1079 1080 -1081 1082 1083 1084
v 1085 1086 -1087 1088 1089 -1090 1091 1092 1093 1094 1095 -1096 1097 1098
v 1099 1100 1101 -1102 -1103 1104 1105 -1106 1107 -1108 -1109 1110 1111 -1112
v 1113 1114 -1115 1116 1117 -1118 -1119 1120 -1121 1122 1123 1124 -1125 1126
v -1127 1128 1129 1130 -1131 1132 1133 1134 1135 -1136 1137 -1138 -1139 -1140
v 1141 -1142 1143 -1144 1145 -1146 -1147 -1148 1149 -1150 1151 -1152 -1153
v -1154 1155 1156 1157 -1158 -1159 1160 1161 1162 1163 -1164 -1165 1166 1167
v 1168 -1169 -1170 1171 1172 1173 1174 -1175 -1176 1177 1178 1179 1180 -1181
v 1182 1183 1184 1185 1186 1187 1188 1189 1190 1191 -1192 1193 1194 -1195 1196
v 1197 -1198 1199 1200 -1201 1202 1203 -1204 -1205 1206 -1207 -1208 1209 -1210
v -1211 1212 -1213 -1214 1215 1216 -1217 1218 -1219 -1220 -1221 1222 -1223
v 1224 -1225 1226 -1227 1228 -1229 1230 -1231 1232 -1233 1234 1235 1236 1237
v 1238 -1239 -1240 -1241 -1242 1243 1244 1245 -1246 -1247 -1248 1249 1250 1251
v -1252 1253 -1254 -1255 1256 1257 -1258 1259 -1260 -1261 1262 1263 1264 1265
v -1266 -1267 -1268 1269 1270 1271 -1272 -1273 -1274 1275 1276 -1277 -1278
v 1279 -1280 1281 1282 -1283 -1284 1285 -1286 1287 1288 -1289 1290 1291 -1292
v 1293 1294 1295 1296 1297 -1298 1299 -1300 1301 1302 -1303 -1304 1305 -1306
v 1307 1308 -1309 -1310 1311 -1312 -1313 1314 -1315 1316 1317 -1318 -1319 1320
v -1321 1322 1323 1324 -1325 1326 -1327 1328 -1329 1330 -1331 1332 -1333 -1334
v -1335 1336 -1337 1338 -1339 -1340 -1341 1342 1343 1344 -1345 1346 -1347
v -1348 1349 -1350 1351 1352 -1353 -1354 1355 -1356 1357 1358 1359 -1360 1361
v -1362 1363 1364 1365 -1366 -1367 -1368 -1369 1370 1371 -1372 -1373 -1374
v -1375 1376 1377 1378 -1379 -1380 -1381 -1382 1383 1384 -1385 -1386 -1387
v -1388 1389 1390 1391 -1392 1393 -1394 1395 1396 1397 -1398 1399 -1400 1401
v 1402 1403 1404 1405 -1406 1407 1408 -1409 1410 1411 -1412 1413 -1414 -1415
v 1416 -1417 -1418 1419 -1420 -1421 1422 -1423 -1424 1425 -1426 1427 1428
v -1429 1430 1431 -1432 1433 1434 -1435 1436 1437 1438 1439 1440 -1441 1442
v -1443 1444 1445 1446 -1447 -1448 -1449 1450 1451 1452 -1453 -1454 -1455 1456
v -1457 1458 1459 -1460 -1461 -1462 1463 -1464 1465 1466 -1467 -1468 1469
v -1470 -1471 1472 -1473 -1474 1475 -1476 -1477 1478 1479 -1480 1481 -1482
v -1483 1484 1485 -1486 -1487 -1488 1489 1490 1491 -1492 -1493 -1494 1495 1496
v 1497 1498 -1499 -1500 1501 -1502 1503 1504 -1505 -1506 1507 -1508 1509 1510
v 1511 -1512 -1513 -1514 1515 1516 1517 -1518 -1519 -1520 1521 1522 1523 1524
v -1525 -1526 1527 1528 -1529 1530 -1531 -1532 1533 -1534 -1535 1536 1537
v -1538 1539 -1540 -1541 1542 1543 -1544 1545 -1546 1547 1548 1549 1550 1551
v -1552 1553 1554 1555 1556 1557 1558 1559 1560 1561 1562 -1563 1564 1565 1566
v 1567 -1568 -1569 1570 1571 1572 1573 -1574 -1575 1576 -1577 1578 1579 -1580
v -1581 1582 -1583 -1584 1585 -1586 -1587 1588 1589 -1590 1591 1592 -1593 1594
v 1595 -1596 -1597 1598 -1599 1600 1601 -1602 -1603 1604 1605 1606 1607 -1608
v -1609 1610 1611 1612 -1613 -1614 1615 1616 1617 1618 -1619 -1620 1621 1622
v 1623 -1624 -1625 -1626 1627 -1628 1629 -1630 -1631 -1632 1633 -1634 1635
v -1636 1637 -1638 -1639 -1640 1641 -1642 1643 -1644 -1645 -1646 1647 -1648
v 1649 1650 -1651 -1652 1653 -1654 -1655 1656 -1657 -1658 1659 1660 -1661 1662
v 1663 -1664 1665 1666 -1667 1668 1669 -1670 1671 1672 1673 1674 1675 1676
v 1677 1678 1679 1680 1681 1682 1683 -1684 1685 1686 1687 1688 -1689 -1690
v 1691 1692 1693 -1694 -1695 -1696 1697 1698 1699 -1700 -1701 -1702 -1703 1704
v -1705 1706 -1707 1708 -1709 -1710 1711 1712 -1713 1714 -1715 -1716 1717 1718
v -1719 1720 1721 -1722 1723 -1724 -1725 1726 1727 -1728 -1729 -1730 -1731
v 1732 1733 -1734 -1735 -1736 1737 1738 1739 -1740 -1741 -1742 1743 1744 -1745
v -1746 1747 -1748 1749 1750 -1751 -1752 1753 -1754 1755 -1756 -1757 -1758
v 1759 1760 1761 -1762 -1763 -1764 1765 1766 1767 -1768 1769 -1770 -1771 1772
v 1773 -1774 1775 -1776 -1777 1778 1779 -1780 1781 1782 -1783 1784 1785 -1786
v -1787 1788 -1789 1790 1791 1792 -1793 1794 1795 1796 1797 1798 -1799 1800
v 1801 1802 1803 1804 1805 1806 1807 -1808 1809 1810 1811 1812 1813 -1814 1815
v -1816 1817 1818 1819 -1820 -1821 -1822 1823 1824 1825 1826 -1827 -1828 1829
v 1830 1831 1832 -1833 -1834 -1835 1836 -1837 1838 -1839 -1840 -1841 1842
v -1843 1844 -1845 1846 -1847 1848 1849 1850 -1851 1852 -1853 1854 1855 1856
v -1857 1858 1859 1860 1861 -1862 -1863 1864 1865 1866 -1867 -1868 -1869 1870
v 1871 1872 -1873 -1874 1875 1876 1877 1878 -1879 -1880 1881 1882 -1883 1884
v 1885 -1886 1887 1888 -1889 1890 1891 -1892 1893 -1894 -1895 1896 1897 1898
v 1899 -1900 -1901 1902 1903 1904 1905 -1906 1907 1908 -1909 1910 1911 -1912
v 1913 1914 -1915 1916 1917 -1918 1919 -1920 -1921 1922 1923 -1924 -1925 -1926
v -1927 1928 1929 1930 -1931 -1932 1933 1934 1935 1936 -1937 -1938 1939 1940
v 1941 1942 1943 -1944 1945 -1946 1947 1948 1949 -1950 1951 -1952 1953 -1954
v 1955 -1956 1957 -1958 -1959 -1960 1961 -1962 1963 1964 -1965 -1966 1967
v -1968 1969 1970 -1971 -1972 -1973 -1974 -1975 -1976 -1977 1978 -1979 1980
v -1981 1982 -1983 1984 -1985 1986 -1987 1988 -1989 -1990 -1991 1992 1993 1994
v -1995 -1996 -1997 1998 1999 2000 -2001 -2002 2003 2004 2005 -2006 -2007
v -2008 2009 2010 -2011 -2012 -2013 -2014 2015 2016 -2017 -2018 2019 -2020
v 2021 2022 -2023 -2024 2025 -2026 -2027 2028 2029 -2030 2031 -2032 -2033 2034
v 2035 -2036 2037 2038 -2039 2040 2041 2042 2043 2044 -2045 2046 2047 2048
v 2049 2050 2051 2052 -2053 2054 2055 2056 2057 2058 -2059 2060 2061 2062 2063
v -2064 -2065 2066 2067 2068 -2069 -2070 -2071 2072 2073 -2074 -2075 -2076
v 2077 2078 2079 -2080 -2081 -2082 2083 2084 2085 -2086 2087 -2088 2089 -2090
v 2091 -2092 2093 -2094 2095 -2096 2097 2098 2099 -2100 2101 -2102 -2103 2104
v 2105 -2106 2107 2108 -2109 2110 2111 -2112 2113 2114 -2115 2116 -2117 -2118
v 2119 -2120 -2121 2122 -2123 -2124 2125 -2126 -2127 2128 -2129 2130 2131 2132
v -2133 2134 -2135 2136 2137 2138 -2139 -2140 -2141 2142 -2143 2144 -2145
v -2146 -2147 2148 -2149 2150 -2151 -2152 2153 2154 -2155 -2156 -2157 -2158
v 2159 2160 2161 -2162 -2163 -2164 2165 2166 2167 -2168 2169 -2170 2171 2172
v 2173 -2174 2175 -2176 -2177 2178 -2179 -2180 2181 -2182 -2183 2184 -2185
v -2186 2187 2188 -2189 2190 -2191 2192 2193 2194 -2195 2196 -2197 2198 2199
v 2200 2201 2202 2203 2204 2205 2206 2207 2208 2209 2210 2211 2212 2213 -2214
v 2215 2216 2217 2218 -2219 -2220 2221 2222 2223 -2224 -2225 -2226 -2227 2228
v 2229 -2230 -2231 -2232 -2233 2234 2235 -2236 2237 -2238 -2239 -2240 2241
v -2242 2243 -2244 -2245 -2246 2247 2248 2249 -2250 -2251 -2252 -2253 2254
v 2255 -2256 -2257 2258 -2259 2260 2261 -2262 -2263 2264 -2265 2266 -2267
v -2268 0
c
c ---- [ profiling ] ---------------------------------------------------------
c
c           6.01   91.01 %  search
c           3.28   49.61 %  stable
c           2.74   41.40 %  focused
c           0.59    8.90 %  simplify
c           0.47    7.05 %  probe
c           0.35    5.31 %  vivify
c           0.11    1.65 %  eliminate
c           0.06    0.98 %  reduce
c           0.06    0.97 %  sweep
c           0.05    0.71 %  substitute
c           0.02    0.27 %  subsume
c           0.01    0.20 %  walking
c           0.01    0.09 %  parse
c           0.00    0.06 %  backbone
c           0.00    0.05 %  warmup
c =============================================
c           6.61  100.00 %  total
c
c ---- [ statistics ] --------------------------------------------------------
c
c conflicts:                           157624            23788.74 per second
c decisions:                           576352                3.66 per conflict
c eliminated:                             730               32 %  variables
c propagations:                      21312074          3216436    per second
c reductions:                              38             4148    interval
c rephased:                                11            14329    interval
c restarts:                              8772               17.97 interval
c strengthened:                          4772                1 %  checks
c subsumed:                               232                0 %  checks
c vivified:                             14105               44 %  checks
c walk_improved:                            2               50 %  walks
c walks:                                    4            39406    interval
c
c ---- [ resources ] ---------------------------------------------------------
c
c maximum-resident-set-size:          5169152 bytes          5 MB
c process-time:                             7s               6.61 seconds
c
c ---- [ shutting down ] -----------------------------------------------------
c
c exit 10
